200
150
100
100
99
99
99
99
99
98
97
97
97
96
96
96
94
94
94
94
93
92
91
91
91
90
90
90
89
88
88
87
87
86
86
86
86
86
85
84
82
81
81
78
78
78
77
77
77
76
76
74
74
74
73
72
72
71
70
69
69
69
68
68
68
68
68
67
66
66
66
65
64
64
64
64
63
61
60
60
59
58
57
57
55
55
55
54
54
52
52
52
51
51
50
49
48
48
47
47
47
46
46
46
46
43
43
43
43
43
42
42
42
41
41
41
40
40
40
40
40
39
39
39
39
38
38
38
37
37
37
37
36
36
35
34
33
33
32
31
31
31
31
30
29
29
29
28
28
28
25
25
23
23
22
22
22
20
20
20
19
19
19
17
17
16
16
16
15
14
13
13
12
12
11
10
10
9
9
9
9
8
8
8
8
8
7
7
6
6
6
6
5
5
5
4
4
3
2
2
1
1
